(declare-const a Real)
(declare-const b Real)
(declare-const c Real)
(assert (= (* a b c) 1))
(assert (> a 0))
(assert (> b 0))
(assert (> c 0))
(assert (not (<= (+ (* (/ -2651019 8) (pow b 4)) (* (/ -2033547 8) (pow a 4)) (* -995328 (pow a (/ 4 3)) (pow b (/ 8 3))) (* (/ 156087 4) (pow a 2) (pow b 2)) (* (/ 723957 2) b (pow a 3)) (* (/ 2359797 2) a (pow b 3))) 0)))
(check-sat)
(get-model)
(exit)